nK = 1686;
nT = 6;
nI = 14;
L = 35;
TT = 397;
np = 1;
nc = 3;
b = [29, 24, 67, 53, 48, 67, 67, 66, 36, 58, 45, 41, 33, 68];
d = [89, 145, 106, 105, 125, 146, 110, 129, 88, 130, 91, 127, 147, 133];
m = [2.5, 1.9, 1.5, 2.3, 1.2, 2.2, 2.4, 1.6, 1.7, 1.8, 2.3, 1.8, 1.3, 1.3];
pt = [0.32, 0.27, 0.31, 0.32, 0.23, 0.33];
st = [15.36, 14.58, 17.67, 16.32, 9.2, 14.19];
arc = {<1, 0, 1, 1, 0, 0, 0, [1, 1, 1, 1, 1, 1]>, <2, 1, 2, 1, 0, 0, 0, [1, 1, 1, 1, 1, 1]>, <3, 2, 3, 1, 0, 0, 0, [1, 1, 1, 1, 1, 1]>, <4, 3, 4, 1, 0, 0, 0, [1, 1, 1, 1, 1, 1]>, <5, 4, 5, 1, 0, 0, 0, [1, 1, 1, 1, 1, 1]>, <6, 5, 6, 1, 0, 0, 0, [1, 1, 1, 1, 1, 1]>, <7, 6, 7, 1, 0, 0, 0, [1, 1, 1, 1, 1, 1]>, <8, 7, 8, 1, 0, 0, 0, [1, 1, 1, 1, 1, 1]>, <9, 8, 9, 1, 0, 0, 0, [1, 1, 1, 1, 1, 1]>, <10, 9, 10, 1, 0, 0, 0, [1, 1, 1, 1, 1, 1]>, <11, 10, 11, 1, 0, 0, 0, [1, 1, 1, 1, 1, 1]>, <12, 11, 12, 1, 0, 0, 0, [1, 1, 1, 1, 1, 1]>, <13, 12, 13, 1, 0, 0, 0, [1, 1, 1, 1, 1, 1]>, <14, 13, 14, 1, 0, 0, 0, [1, 1, 1, 1, 1, 1]>, <15, 14, 15, 1, 0, 0, 0, [1, 1, 1, 1, 1, 1]>, <16, 15, 16, 1, 0, 0, 0, [1, 1, 1, 1, 1, 1]>, <17, 16, 17, 1, 0, 0, 0, [1, 1, 1, 1, 1, 1]>, <18, 17, 18, 1, 0, 0, 0, [1, 1, 1, 1, 1, 1]>, <19, 18, 19, 1, 0, 0, 0, [1, 1, 1, 1, 1, 1]>, <20, 19, 20, 1, 0, 0, 0, [1, 1, 1, 1, 1, 1]>, <21, 20, 21, 1, 0, 0, 0, [1, 1, 1, 1, 1, 1]>, <22, 21, 22, 1, 0, 0, 0, [1, 1, 1, 1, 1, 1]>, <23, 22, 23, 1, 0, 0, 0, [1, 1, 1, 1, 1, 1]>, <24, 23, 24, 1, 0, 0, 0, [1, 1, 1, 1, 1, 1]>, <25, 24, 25, 1, 0, 0, 0, [1, 1, 1, 1, 1, 1]>, <26, 25, 26, 1, 0, 0, 0, [1, 1, 1, 1, 1, 1]>, <27, 26, 27, 1, 0, 0, 0, [1, 1, 1, 1, 1, 1]>, <28, 27, 28, 1, 0, 0, 0, [1, 1, 1, 1, 1, 1]>, <29, 28, 29, 1, 0, 0, 0, [1, 1, 1, 1, 1, 1]>, <30, 29, 30, 1, 0, 0, 0, [1, 1, 1, 1, 1, 1]>, <31, 30, 31, 1, 0, 0, 0, [1, 1, 1, 1, 1, 1]>, <32, 31, 32, 1, 0, 0, 0, [1, 1, 1, 1, 1, 1]>, <33, 32, 33, 1, 0, 0, 0, [1, 1, 1, 1, 1, 1]>, <34, 33, 34, 1, 0, 0, 0, [1, 1, 1, 1, 1, 1]>, <35, 34, 35, 1, 0, 0, 0, [1, 1, 1, 1, 1, 1]>, <36, 0, 18, 18, 1, 1, 0, [0, 1, 1, 1, 1, 0]>, <37, 1, 19, 18, 1, 1, 0, [0, 1, 1, 1, 1, 0]>, <38, 2, 20, 18, 1, 1, 0, [0, 1, 1, 1, 1, 0]>, <39, 3, 21, 18, 1, 1, 0, [0, 1, 1, 1, 1, 0]>, <40, 4, 22, 18, 1, 1, 0, [0, 1, 1, 1, 1, 0]>, <41, 5, 23, 18, 1, 1, 0, [0, 1, 1, 1, 1, 0]>, <42, 6, 24, 18, 1, 1, 0, [0, 1, 1, 1, 1, 0]>, <43, 8, 26, 18, 1, 1, 0, [0, 1, 1, 1, 1, 0]>, <44, 9, 27, 18, 1, 1, 0, [0, 1, 1, 1, 1, 0]>, <45, 10, 28, 18, 1, 1, 0, [0, 1, 1, 1, 1, 0]>, <46, 11, 29, 18, 1, 1, 0, [0, 1, 1, 1, 1, 0]>, <47, 12, 30, 18, 1, 1, 0, [0, 1, 1, 1, 1, 0]>, <48, 13, 31, 18, 1, 1, 0, [0, 1, 1, 1, 1, 0]>, <49, 14, 32, 18, 1, 1, 0, [0, 1, 1, 1, 1, 0]>, <50, 15, 33, 18, 1, 1, 0, [0, 1, 1, 1, 1, 0]>, <51, 16, 34, 18, 1, 1, 0, [0, 1, 1, 1, 1, 0]>, <52, 17, 35, 18, 1, 1, 0, [0, 1, 1, 1, 1, 0]>, <53, 0, 20, 20, 2, 1, 0, [0, 1, 1, 1, 1, 0]>, <54, 1, 21, 20, 2, 1, 0, [0, 1, 1, 1, 1, 0]>, <55, 2, 22, 20, 2, 1, 0, [0, 1, 1, 1, 1, 0]>, <56, 3, 23, 20, 2, 1, 0, [0, 1, 1, 1, 1, 0]>, <57, 4, 24, 20, 2, 1, 0, [0, 1, 1, 1, 1, 0]>, <58, 5, 25, 20, 2, 1, 0, [0, 1, 1, 1, 1, 0]>, <59, 6, 26, 20, 2, 1, 0, [0, 1, 1, 1, 1, 0]>, <60, 7, 27, 20, 2, 1, 0, [0, 1, 1, 1, 1, 0]>, <61, 8, 28, 20, 2, 1, 0, [0, 1, 1, 1, 1, 0]>, <62, 9, 29, 20, 2, 1, 0, [0, 1, 1, 1, 1, 0]>, <63, 10, 30, 20, 2, 1, 0, [0, 1, 1, 1, 1, 0]>, <64, 11, 31, 20, 2, 1, 0, [0, 1, 1, 1, 1, 0]>, <65, 12, 32, 20, 2, 1, 0, [0, 1, 1, 1, 1, 0]>, <66, 13, 33, 20, 2, 1, 0, [0, 1, 1, 1, 1, 0]>, <67, 14, 34, 20, 2, 1, 0, [0, 1, 1, 1, 1, 0]>, <68, 15, 35, 20, 2, 1, 0, [0, 1, 1, 1, 1, 0]>, <69, 0, 21, 21, 3, 0, 0, [1, 1, 1, 0, 0, 1]>, <70, 1, 22, 21, 3, 0, 0, [1, 1, 1, 0, 0, 1]>, <71, 2, 23, 21, 3, 0, 0, [1, 1, 1, 0, 0, 1]>, <72, 3, 24, 21, 3, 0, 0, [1, 1, 1, 0, 0, 1]>, <73, 4, 25, 21, 3, 0, 0, [1, 1, 1, 0, 0, 1]>, <74, 5, 26, 21, 3, 0, 0, [1, 1, 1, 0, 0, 1]>, <75, 6, 27, 21, 3, 0, 0, [1, 1, 1, 0, 0, 1]>, <76, 7, 28, 21, 3, 0, 0, [1, 1, 1, 0, 0, 1]>, <77, 8, 29, 21, 3, 0, 0, [1, 1, 1, 0, 0, 1]>, <78, 9, 30, 21, 3, 0, 0, [1, 1, 1, 0, 0, 1]>, <79, 10, 31, 21, 3, 0, 0, [1, 1, 1, 0, 0, 1]>, <80, 11, 32, 21, 3, 0, 0, [1, 1, 1, 0, 0, 1]>, <81, 12, 33, 21, 3, 0, 0, [1, 1, 1, 0, 0, 1]>, <82, 13, 34, 21, 3, 0, 0, [1, 1, 1, 0, 0, 1]>, <83, 14, 35, 21, 3, 0, 0, [1, 1, 1, 0, 0, 1]>, <84, 0, 17, 17, 4, 1, 0, [0, 1, 1, 1, 1, 0]>, <85, 1, 18, 17, 4, 1, 0, [0, 1, 1, 1, 1, 0]>, <86, 2, 19, 17, 4, 1, 0, [0, 1, 1, 1, 1, 0]>, <87, 3, 20, 17, 4, 1, 0, [0, 1, 1, 1, 1, 0]>, <88, 4, 21, 17, 4, 1, 0, [0, 1, 1, 1, 1, 0]>, <89, 5, 22, 17, 4, 1, 0, [0, 1, 1, 1, 1, 0]>, <90, 6, 23, 17, 4, 1, 0, [0, 1, 1, 1, 1, 0]>, <91, 9, 26, 17, 4, 1, 0, [0, 1, 1, 1, 1, 0]>, <92, 10, 27, 17, 4, 1, 0, [0, 1, 1, 1, 1, 0]>, <93, 11, 28, 17, 4, 1, 0, [0, 1, 1, 1, 1, 0]>, <94, 12, 29, 17, 4, 1, 0, [0, 1, 1, 1, 1, 0]>, <95, 13, 30, 17, 4, 1, 0, [0, 1, 1, 1, 1, 0]>, <96, 14, 31, 17, 4, 1, 0, [0, 1, 1, 1, 1, 0]>, <97, 15, 32, 17, 4, 1, 0, [0, 1, 1, 1, 1, 0]>, <98, 16, 33, 17, 4, 1, 0, [0, 1, 1, 1, 1, 0]>, <99, 17, 34, 17, 4, 1, 0, [0, 1, 1, 1, 1, 0]>, <100, 18, 35, 17, 4, 1, 0, [0, 1, 1, 1, 1, 0]>, <101, 0, 17, 17, 5, 0, 0, [0, 1, 1, 1, 1, 0]>, <102, 1, 18, 17, 5, 0, 0, [0, 1, 1, 1, 1, 0]>, <103, 2, 19, 17, 5, 0, 0, [0, 1, 1, 1, 1, 0]>, <104, 3, 20, 17, 5, 0, 0, [0, 1, 1, 1, 1, 0]>, <105, 4, 21, 17, 5, 0, 0, [0, 1, 1, 1, 1, 0]>, <106, 5, 22, 17, 5, 0, 0, [0, 1, 1, 1, 1, 0]>, <107, 6, 23, 17, 5, 0, 0, [0, 1, 1, 1, 1, 0]>, <108, 9, 26, 17, 5, 0, 0, [0, 1, 1, 1, 1, 0]>, <109, 10, 27, 17, 5, 0, 0, [0, 1, 1, 1, 1, 0]>, <110, 11, 28, 17, 5, 0, 0, [0, 1, 1, 1, 1, 0]>, <111, 12, 29, 17, 5, 0, 0, [0, 1, 1, 1, 1, 0]>, <112, 13, 30, 17, 5, 0, 0, [0, 1, 1, 1, 1, 0]>, <113, 14, 31, 17, 5, 0, 0, [0, 1, 1, 1, 1, 0]>, <114, 15, 32, 17, 5, 0, 0, [0, 1, 1, 1, 1, 0]>, <115, 16, 33, 17, 5, 0, 0, [0, 1, 1, 1, 1, 0]>, <116, 17, 34, 17, 5, 0, 0, [0, 1, 1, 1, 1, 0]>, <117, 18, 35, 17, 5, 0, 0, [0, 1, 1, 1, 1, 0]>, <118, 0, 19, 19, 6, 0, 1, [1, 1, 1, 0, 0, 1]>, <119, 1, 20, 19, 6, 0, 1, [1, 1, 1, 0, 0, 1]>, <120, 2, 21, 19, 6, 0, 1, [1, 1, 1, 0, 0, 1]>, <121, 3, 22, 19, 6, 0, 1, [1, 1, 1, 0, 0, 1]>, <122, 4, 23, 19, 6, 0, 1, [1, 1, 1, 0, 0, 1]>, <123, 5, 24, 19, 6, 0, 1, [1, 1, 1, 0, 0, 1]>, <124, 6, 25, 19, 6, 0, 1, [1, 1, 1, 0, 0, 1]>, <125, 7, 26, 19, 6, 0, 1, [1, 1, 1, 0, 0, 1]>, <126, 8, 27, 19, 6, 0, 1, [1, 1, 1, 0, 0, 1]>, <127, 9, 28, 19, 6, 0, 1, [1, 1, 1, 0, 0, 1]>, <128, 10, 29, 19, 6, 0, 1, [1, 1, 1, 0, 0, 1]>, <129, 11, 30, 19, 6, 0, 1, [1, 1, 1, 0, 0, 1]>, <130, 12, 31, 19, 6, 0, 1, [1, 1, 1, 0, 0, 1]>, <131, 13, 32, 19, 6, 0, 1, [1, 1, 1, 0, 0, 1]>, <132, 14, 33, 19, 6, 0, 1, [1, 1, 1, 0, 0, 1]>, <133, 15, 34, 19, 6, 0, 1, [1, 1, 1, 0, 0, 1]>, <134, 16, 35, 19, 6, 0, 1, [1, 1, 1, 0, 0, 1]>, <135, 0, 18, 18, 7, 0, 0, [1, 1, 1, 0, 0, 1]>, <136, 1, 19, 18, 7, 0, 0, [1, 1, 1, 0, 0, 1]>, <137, 2, 20, 18, 7, 0, 0, [1, 1, 1, 0, 0, 1]>, <138, 3, 21, 18, 7, 0, 0, [1, 1, 1, 0, 0, 1]>, <139, 4, 22, 18, 7, 0, 0, [1, 1, 1, 0, 0, 1]>, <140, 5, 23, 18, 7, 0, 0, [1, 1, 1, 0, 0, 1]>, <141, 6, 24, 18, 7, 0, 0, [1, 1, 1, 0, 0, 1]>, <142, 8, 26, 18, 7, 0, 0, [1, 1, 1, 0, 0, 1]>, <143, 9, 27, 18, 7, 0, 0, [1, 1, 1, 0, 0, 1]>, <144, 10, 28, 18, 7, 0, 0, [1, 1, 1, 0, 0, 1]>, <145, 11, 29, 18, 7, 0, 0, [1, 1, 1, 0, 0, 1]>, <146, 12, 30, 18, 7, 0, 0, [1, 1, 1, 0, 0, 1]>, <147, 13, 31, 18, 7, 0, 0, [1, 1, 1, 0, 0, 1]>, <148, 14, 32, 18, 7, 0, 0, [1, 1, 1, 0, 0, 1]>, <149, 15, 33, 18, 7, 0, 0, [1, 1, 1, 0, 0, 1]>, <150, 16, 34, 18, 7, 0, 0, [1, 1, 1, 0, 0, 1]>, <151, 17, 35, 18, 7, 0, 0, [1, 1, 1, 0, 0, 1]>, <152, 1, 17, 16, 8, 0, 0, [1, 1, 1, 0, 0, 1]>, <153, 2, 18, 16, 8, 0, 0, [1, 1, 1, 0, 0, 1]>, <154, 3, 19, 16, 8, 0, 0, [1, 1, 1, 0, 0, 1]>, <155, 4, 20, 16, 8, 0, 0, [1, 1, 1, 0, 0, 1]>, <156, 5, 21, 16, 8, 0, 0, [1, 1, 1, 0, 0, 1]>, <157, 6, 22, 16, 8, 0, 0, [1, 1, 1, 0, 0, 1]>, <158, 10, 26, 16, 8, 0, 0, [1, 1, 1, 0, 0, 1]>, <159, 11, 27, 16, 8, 0, 0, [1, 1, 1, 0, 0, 1]>, <160, 12, 28, 16, 8, 0, 0, [1, 1, 1, 0, 0, 1]>, <161, 13, 29, 16, 8, 0, 0, [1, 1, 1, 0, 0, 1]>, <162, 14, 30, 16, 8, 0, 0, [1, 1, 1, 0, 0, 1]>, <163, 15, 31, 16, 8, 0, 0, [1, 1, 1, 0, 0, 1]>, <164, 16, 32, 16, 8, 0, 0, [1, 1, 1, 0, 0, 1]>, <165, 17, 33, 16, 8, 0, 0, [1, 1, 1, 0, 0, 1]>, <166, 18, 34, 16, 8, 0, 0, [1, 1, 1, 0, 0, 1]>, <167, 19, 35, 16, 8, 0, 0, [1, 1, 1, 0, 0, 1]>, <168, 0, 22, 22, 9, 0, 0, [1, 1, 0, 0, 1, 1]>, <169, 1, 23, 22, 9, 0, 0, [1, 1, 0, 0, 1, 1]>, <170, 2, 24, 22, 9, 0, 0, [1, 1, 0, 0, 1, 1]>, <171, 3, 25, 22, 9, 0, 0, [1, 1, 0, 0, 1, 1]>, <172, 4, 26, 22, 9, 0, 0, [1, 1, 0, 0, 1, 1]>, <173, 5, 27, 22, 9, 0, 0, [1, 1, 0, 0, 1, 1]>, <174, 6, 28, 22, 9, 0, 0, [1, 1, 0, 0, 1, 1]>, <175, 7, 29, 22, 9, 0, 0, [1, 1, 0, 0, 1, 1]>, <176, 8, 30, 22, 9, 0, 0, [1, 1, 0, 0, 1, 1]>, <177, 9, 31, 22, 9, 0, 0, [1, 1, 0, 0, 1, 1]>, <178, 10, 32, 22, 9, 0, 0, [1, 1, 0, 0, 1, 1]>, <179, 11, 33, 22, 9, 0, 0, [1, 1, 0, 0, 1, 1]>, <180, 12, 34, 22, 9, 0, 0, [1, 1, 0, 0, 1, 1]>, <181, 13, 35, 22, 9, 0, 0, [1, 1, 0, 0, 1, 1]>, <182, 0, 20, 20, 10, 0, 0, [0, 1, 1, 1, 1, 0]>, <183, 1, 21, 20, 10, 0, 0, [0, 1, 1, 1, 1, 0]>, <184, 2, 22, 20, 10, 0, 0, [0, 1, 1, 1, 1, 0]>, <185, 3, 23, 20, 10, 0, 0, [0, 1, 1, 1, 1, 0]>, <186, 4, 24, 20, 10, 0, 0, [0, 1, 1, 1, 1, 0]>, <187, 5, 25, 20, 10, 0, 0, [0, 1, 1, 1, 1, 0]>, <188, 6, 26, 20, 10, 0, 0, [0, 1, 1, 1, 1, 0]>, <189, 7, 27, 20, 10, 0, 0, [0, 1, 1, 1, 1, 0]>, <190, 8, 28, 20, 10, 0, 0, [0, 1, 1, 1, 1, 0]>, <191, 9, 29, 20, 10, 0, 0, [0, 1, 1, 1, 1, 0]>, <192, 10, 30, 20, 10, 0, 0, [0, 1, 1, 1, 1, 0]>, <193, 11, 31, 20, 10, 0, 0, [0, 1, 1, 1, 1, 0]>, <194, 12, 32, 20, 10, 0, 0, [0, 1, 1, 1, 1, 0]>, <195, 13, 33, 20, 10, 0, 0, [0, 1, 1, 1, 1, 0]>, <196, 14, 34, 20, 10, 0, 0, [0, 1, 1, 1, 1, 0]>, <197, 15, 35, 20, 10, 0, 0, [0, 1, 1, 1, 1, 0]>, <198, 0, 19, 19, 11, 0, 0, [1, 1, 1, 1, 0, 0]>, <199, 1, 20, 19, 11, 0, 0, [1, 1, 1, 1, 0, 0]>, <200, 2, 21, 19, 11, 0, 0, [1, 1, 1, 1, 0, 0]>, <201, 3, 22, 19, 11, 0, 0, [1, 1, 1, 1, 0, 0]>, <202, 4, 23, 19, 11, 0, 0, [1, 1, 1, 1, 0, 0]>, <203, 5, 24, 19, 11, 0, 0, [1, 1, 1, 1, 0, 0]>, <204, 6, 25, 19, 11, 0, 0, [1, 1, 1, 1, 0, 0]>, <205, 7, 26, 19, 11, 0, 0, [1, 1, 1, 1, 0, 0]>, <206, 8, 27, 19, 11, 0, 0, [1, 1, 1, 1, 0, 0]>, <207, 9, 28, 19, 11, 0, 0, [1, 1, 1, 1, 0, 0]>, <208, 10, 29, 19, 11, 0, 0, [1, 1, 1, 1, 0, 0]>, <209, 11, 30, 19, 11, 0, 0, [1, 1, 1, 1, 0, 0]>, <210, 12, 31, 19, 11, 0, 0, [1, 1, 1, 1, 0, 0]>, <211, 13, 32, 19, 11, 0, 0, [1, 1, 1, 1, 0, 0]>, <212, 14, 33, 19, 11, 0, 0, [1, 1, 1, 1, 0, 0]>, <213, 15, 34, 19, 11, 0, 0, [1, 1, 1, 1, 0, 0]>, <214, 16, 35, 19, 11, 0, 0, [1, 1, 1, 1, 0, 0]>, <215, 0, 19, 19, 12, 0, 0, [0, 1, 1, 1, 1, 0]>, <216, 1, 20, 19, 12, 0, 0, [0, 1, 1, 1, 1, 0]>, <217, 2, 21, 19, 12, 0, 0, [0, 1, 1, 1, 1, 0]>, <218, 3, 22, 19, 12, 0, 0, [0, 1, 1, 1, 1, 0]>, <219, 4, 23, 19, 12, 0, 0, [0, 1, 1, 1, 1, 0]>, <220, 5, 24, 19, 12, 0, 0, [0, 1, 1, 1, 1, 0]>, <221, 6, 25, 19, 12, 0, 0, [0, 1, 1, 1, 1, 0]>, <222, 7, 26, 19, 12, 0, 0, [0, 1, 1, 1, 1, 0]>, <223, 8, 27, 19, 12, 0, 0, [0, 1, 1, 1, 1, 0]>, <224, 9, 28, 19, 12, 0, 0, [0, 1, 1, 1, 1, 0]>, <225, 10, 29, 19, 12, 0, 0, [0, 1, 1, 1, 1, 0]>, <226, 11, 30, 19, 12, 0, 0, [0, 1, 1, 1, 1, 0]>, <227, 12, 31, 19, 12, 0, 0, [0, 1, 1, 1, 1, 0]>, <228, 13, 32, 19, 12, 0, 0, [0, 1, 1, 1, 1, 0]>, <229, 14, 33, 19, 12, 0, 0, [0, 1, 1, 1, 1, 0]>, <230, 15, 34, 19, 12, 0, 0, [0, 1, 1, 1, 1, 0]>, <231, 16, 35, 19, 12, 0, 0, [0, 1, 1, 1, 1, 0]>, <232, 0, 20, 20, 13, 0, 1, [1, 1, 1, 0, 0, 1]>, <233, 1, 21, 20, 13, 0, 1, [1, 1, 1, 0, 0, 1]>, <234, 2, 22, 20, 13, 0, 1, [1, 1, 1, 0, 0, 1]>, <235, 3, 23, 20, 13, 0, 1, [1, 1, 1, 0, 0, 1]>, <236, 4, 24, 20, 13, 0, 1, [1, 1, 1, 0, 0, 1]>, <237, 5, 25, 20, 13, 0, 1, [1, 1, 1, 0, 0, 1]>, <238, 6, 26, 20, 13, 0, 1, [1, 1, 1, 0, 0, 1]>, <239, 7, 27, 20, 13, 0, 1, [1, 1, 1, 0, 0, 1]>, <240, 8, 28, 20, 13, 0, 1, [1, 1, 1, 0, 0, 1]>, <241, 9, 29, 20, 13, 0, 1, [1, 1, 1, 0, 0, 1]>, <242, 10, 30, 20, 13, 0, 1, [1, 1, 1, 0, 0, 1]>, <243, 11, 31, 20, 13, 0, 1, [1, 1, 1, 0, 0, 1]>, <244, 12, 32, 20, 13, 0, 1, [1, 1, 1, 0, 0, 1]>, <245, 13, 33, 20, 13, 0, 1, [1, 1, 1, 0, 0, 1]>, <246, 14, 34, 20, 13, 0, 1, [1, 1, 1, 0, 0, 1]>, <247, 15, 35, 20, 13, 0, 1, [1, 1, 1, 0, 0, 1]>, <248, 0, 17, 17, 14, 0, 0, [1, 1, 1, 0, 0, 1]>, <249, 1, 18, 17, 14, 0, 0, [1, 1, 1, 0, 0, 1]>, <250, 2, 19, 17, 14, 0, 0, [1, 1, 1, 0, 0, 1]>, <251, 3, 20, 17, 14, 0, 0, [1, 1, 1, 0, 0, 1]>, <252, 4, 21, 17, 14, 0, 0, [1, 1, 1, 0, 0, 1]>, <253, 5, 22, 17, 14, 0, 0, [1, 1, 1, 0, 0, 1]>, <254, 6, 23, 17, 14, 0, 0, [1, 1, 1, 0, 0, 1]>, <255, 9, 26, 17, 14, 0, 0, [1, 1, 1, 0, 0, 1]>, <256, 10, 27, 17, 14, 0, 0, [1, 1, 1, 0, 0, 1]>, <257, 11, 28, 17, 14, 0, 0, [1, 1, 1, 0, 0, 1]>, <258, 12, 29, 17, 14, 0, 0, [1, 1, 1, 0, 0, 1]>, <259, 13, 30, 17, 14, 0, 0, [1, 1, 1, 0, 0, 1]>, <260, 14, 31, 17, 14, 0, 0, [1, 1, 1, 0, 0, 1]>, <261, 15, 32, 17, 14, 0, 0, [1, 1, 1, 0, 0, 1]>, <262, 16, 33, 17, 14, 0, 0, [1, 1, 1, 0, 0, 1]>, <263, 17, 34, 17, 14, 0, 0, [1, 1, 1, 0, 0, 1]>, <264, 18, 35, 17, 14, 0, 0, [1, 1, 1, 0, 0, 1]>};
